JOBS = 1..5;
MACHINES = 1..5;
SPEED = 1;
time = array3d(JOBS,MACHINES,1..SPEED,[36,14,99,64,48,90,26,15,69,99,44,80,90,60,72,73,91,37,20,53,70,87,80,66,58]);
energy = array3d(JOBS,MACHINES,1..SPEED,[69,86,37,52,61,40,77,86,50,37,64,44,40,54,48,48,40,69,81,58,49,41,44,51,55]);
precedence = array2d(JOBS,MACHINES,[2,3,1,0,4,0,3,1,4,2,1,2,3,4,0,2,0,3,4,1,3,0,4,1,2]);
ME = 1;
TE = 156;
st_old = array2d(JOBS,MACHINES,[217,284,105,0,302,0,258,90,284,144,90,178,258,353,0,144,0,217,254,91,302,91,372,178,244]);
SpeedScaling = array2d(JOBS,MACHINES,[1,1,1,1,1,1,1,1,1,1,1,1,1,1,1,1,1,1,1,1,1,1,1,1,1]);
